\* FantasyTeam *\
Maximize
OBJ: 88 x0 + 82 x1 + 51 x10 + 65 x11 + 54 x12 + 46 x13 + 51 x14 + 55 x15
 + 48 x16 + 45 x17 + 60 x18 + 49 x19 + 95 x2 + 60 x20 + 124 x21 + 64 x22
 + 80 x23 + 73 x24 + 102 x25 + 85 x26 + 55 x27 + 49 x28 + 114 x29 + 119 x3
 + 45 x30 + 45 x31 + 55 x32 + 50 x33 + 45 x34 + 45 x35 + 50 x36 + 55 x37
 + 50 x38 + 46 x39 + 45 x4 + 91 x5 + 60 x6 + 97 x7 + 50 x8 + 54 x9
Subject To
_C1: 88 x0 + 82 x1 + 51 x10 + 65 x11 + 54 x12 + 46 x13 + 51 x14 + 55 x15
 + 48 x16 + 45 x17 + 60 x18 + 49 x19 + 95 x2 + 60 x20 + 124 x21 + 64 x22
 + 80 x23 + 73 x24 + 102 x25 + 85 x26 + 55 x27 + 49 x28 + 114 x29 + 119 x3
 + 45 x30 + 45 x31 + 55 x32 + 50 x33 + 45 x34 + 45 x35 + 50 x36 + 55 x37
 + 50 x38 + 46 x39 + 45 x4 + 91 x5 + 60 x6 + 97 x7 + 50 x8 + 54 x9 <= 1000
_C10: x36 <= 3
_C11: x19 <= 3
_C12: x17 + x9 <= 3
_C13: x12 <= 3
_C14: x14 + x3 + x37 <= 3
_C15: x24 + x34 <= 3
_C16: x31 + x4 <= 3
_C17: x22 + x6 <= 3
_C18: x38 <= 3
_C19: x23 + x28 + x30 <= 3
_C2: x30 + x31 + x32 + x33 + x34 + x35 + x36 + x37 + x38 + x39 = 2
_C20: x20 + x35 <= 3
_C21: x11 + x25 <= 3
_C22: x18 + x2 + x21 + x32 + x7 <= 3
_C23: x13 + x39 <= 3
_C3: x10 + x11 + x12 + x13 + x14 + x15 + x16 + x17 + x18 + x19 = 5
_C4: x0 + x1 + x2 + x3 + x4 + x5 + x6 + x7 + x8 + x9 = 5
_C5: x20 + x21 + x22 + x23 + x24 + x25 + x26 + x27 + x28 + x29 = 3
_C6: x16 <= 3
_C7: x0 + x33 + x5 <= 3
_C8: x10 + x26 + x27 <= 3
_C9: x1 + x15 + x29 + x8 <= 3
Binaries
x0
x1
x10
x11
x12
x13
x14
x15
x16
x17
x18
x19
x2
x20
x21
x22
x23
x24
x25
x26
x27
x28
x29
x3
x30
x31
x32
x33
x34
x35
x36
x37
x38
x39
x4
x5
x6
x7
x8
x9
End
